NAME          
ROWS
 N  OBJ
 L  c1
 L  c2
 L  c3
 L  c4
COLUMNS
    MARKER    'MARKER'                 'INTORG'
    x[1]      c1        164
    x[1]      c2        753
    x[1]      c3        917
    x[1]      c4        232
    x[1]      OBJ       -580
    x[2]      c1        893
    x[2]      c2        525
    x[2]      c3        574
    x[2]      c4        399
    x[2]      OBJ       -344
    x[3]      c1        833
    x[3]      c2        10
    x[3]      c3        631
    x[3]      c4        31
    x[3]      OBJ       -733
    x[4]      c1        49
    x[4]      c2        225
    x[4]      c3        298
    x[4]      c4        847
    x[4]      OBJ       -414
    x[5]      c1        902
    x[5]      c2        393
    x[5]      c3        526
    x[5]      c4        92
    x[5]      OBJ       -696
    x[6]      c1        475
    x[6]      c2        790
    x[6]      c3        271
    x[6]      c4        414
    x[6]      OBJ       -56
    x[7]      c1        22
    x[7]      c2        318
    x[7]      c3        388
    x[7]      c4        920
    x[7]      OBJ       -336
    x[8]      c1        582
    x[8]      c2        864
    x[8]      c3        723
    x[8]      c4        539
    x[8]      OBJ       -908
    x[9]      c1        749
    x[9]      c2        94
    x[9]      c3        380
    x[9]      c4        927
    x[9]      OBJ       -382
    x[10]     c1        564
    x[10]     c2        26
    x[10]     c3        700
    x[10]     c4        992
    x[10]     OBJ       -334
    x[11]     c1        456
    x[11]     c2        6
    x[11]     c3        734
    x[11]     c4        338
    x[11]     OBJ       -124
    x[12]     c1        148
    x[12]     c2        590
    x[12]     c3        934
    x[12]     c4        327
    x[12]     OBJ       -821
    x[13]     c1        751
    x[13]     c2        376
    x[13]     c3        821
    x[13]     c4        924
    x[13]     OBJ       -310
    x[14]     c1        97
    x[14]     c2        190
    x[14]     c3        477
    x[14]     c4        203
    x[14]     OBJ       -822
    x[15]     c1        63
    x[15]     c2        229
    x[15]     c3        111
    x[15]     c4        94
    x[15]     OBJ       -87
    x[16]     c1        296
    x[16]     c2        17
    x[16]     c3        928
    x[16]     c4        750
    x[16]     OBJ       -282
    x[17]     c1        188
    x[17]     c2        186
    x[17]     c3        195
    x[17]     c4        11
    x[17]     OBJ       -26
    x[18]     c1        952
    x[18]     c2        563
    x[18]     c3        16
    x[18]     c4        521
    x[18]     OBJ       -287
    x[19]     c1        496
    x[19]     c2        232
    x[19]     c3        695
    x[19]     c4        735
    x[19]     OBJ       -961
    x[20]     c1        743
    x[20]     c2        304
    x[20]     c3        883
    x[20]     c4        421
    x[20]     OBJ       -328
RHS
    rhs       c1        4712
    rhs       c2        3346
    rhs       c3        5601
    rhs       c4        4858
RANGES
BOUNDS
 BV bounds    x[1]
 BV bounds    x[2]
 BV bounds    x[3]
 BV bounds    x[4]
 BV bounds    x[5]
 BV bounds    x[6]
 BV bounds    x[7]
 BV bounds    x[8]
 BV bounds    x[9]
 BV bounds    x[10]
 BV bounds    x[11]
 BV bounds    x[12]
 BV bounds    x[13]
 BV bounds    x[14]
 BV bounds    x[15]
 BV bounds    x[16]
 BV bounds    x[17]
 BV bounds    x[18]
 BV bounds    x[19]
 BV bounds    x[20]
ENDATA
